Tried aggregator 2 times.
MIP Presolve eliminated 136 rows and 38 columns.
MIP Presolve modified 51 coefficients.
Aggregator did 12 substitutions.
Reduced MIP has 162 rows, 239 columns, and 806 nonzeros.
Reduced MIP has 128 binaries, 2 generals, 0 SOSs, and 0 indicators.
Presolve time = 0.00 sec. (1.18 ticks)
Found incumbent of value 1100.000000 after 0.00 sec. (2.36 ticks)
Probing fixed 0 vars, tightened 1 bounds.
Probing time = 0.00 sec. (0.57 ticks)
Cover probing fixed 0 vars, tightened 33 bounds.
Tried aggregator 1 time.
MIP Presolve modified 27 coefficients.
Reduced MIP has 162 rows, 239 columns, and 806 nonzeros.
Reduced MIP has 128 binaries, 8 generals, 0 SOSs, and 0 indicators.
Presolve time = 0.00 sec. (0.50 ticks)
Probing fixed 0 vars, tightened 4 bounds.
Probing time = 0.00 sec. (0.55 ticks)
Clique table members: 306.
MIP emphasis: balance optimality and feasibility.
MIP search method: dynamic search.
Parallel mode: none, using 1 thread.
Root relaxation solution time = 0.00 sec. (1.00 ticks)

        Nodes                                         Cuts/
   Node  Left     Objective  IInf  Best Integer    Best Bound    ItCnt     Gap

*     0+    0                         1100.0000        0.0000       87  100.00%
      0     0       89.8183    37     1100.0000       89.8183       87   91.83%
      0     0       94.4770    41     1100.0000      Cuts: 30      147   91.41%
      0     0      141.3334    38     1100.0000      Cuts: 41      234   87.15%
      0     0      159.4449    37     1100.0000      Cuts: 32      323   85.51%
      0     0      159.9213    38     1100.0000      Cuts: 14      340   85.46%
      0     0      159.9213    41     1100.0000      Cuts: 12      359   85.46%
      0     0      159.9213    43     1100.0000       Cuts: 8      388   85.46%
*     0+    0                          430.0000      159.9213      388   62.81%
*     0+    0                          370.0000      159.9213      388   56.78%
      0     2      159.9213    37      370.0000      159.9213      388   56.78%
Elapsed time = 0.10 sec. (78.14 ticks, tree = 0.00 MB, solutions = 3)
*   100+   85                          330.0000      160.0838     2667   51.49%
    780   508      312.4666    25      330.0000      185.5044    15170   43.79%
    940   593      307.0000    22      330.0000      307.0000    21307    6.97%
   1120   339      314.0000    25      330.0000      307.5389    25879    6.81%
   1529   346      313.5141    15      330.0000      308.6547    36164    6.47%
   2004   609      314.4719    18      330.0000      310.3333    46711    5.96%
   2441   816      323.7750    21      330.0000      311.5617    59260    5.59%
   2819   913      313.3333    15      330.0000      313.3333    70902    5.05%
   3138   997      313.3333    13      330.0000      313.3333    81813    5.05%
   3504  1105      320.8471    20      330.0000      313.3333    93519    5.05%

GUB cover cuts applied:  5
Cover cuts applied:  6
Implied bound cuts applied:  17
Flow cuts applied:  50
Mixed integer rounding cuts applied:  19
Zero-half cuts applied:  3
Lift and project cuts applied:  10
Gomory fractional cuts applied:  1

Root node processing (before b&c):
  Real time             =    0.10 sec. (78.13 ticks)
Sequential b&c:
  Real time             =    3.32 sec. (3319.82 ticks)
                          ------------
Total (root+branch&cut) =    3.42 sec. (3397.96 ticks)
